123                                     
   1.00000000000000     
     3.8066714241364541   -4.6937064556075425   -0.0000000000000000
     3.8066714241364541    4.6937064556075425   -0.0000000000000000
    -0.0000000000000000    0.0000000000000000    5.6412967764033422
   Na   Sb   Cu
     4     2     2
Direct
  0.5230159867774760  0.1713207095514178  0.2500000000000000
  0.8286793094485873  0.4769840062225196  0.7499999799999983
  0.4769840092225234  0.8286792774485846  0.7499999799999983
  0.1713207065514140  0.5230159817774862  0.2500000000000000
  0.7244108642353163  0.7244108312353171  0.2500000000000000
  0.2755891507646883  0.2755891557646852  0.7499999799999983
  0.0000000000000000  0.0000000000000000  0.5000000000000000
  0.0000000000000000  0.0000000000000000  0.0000000000000000
 
  0.00000000E+00  0.00000000E+00  0.00000000E+00
  0.00000000E+00  0.00000000E+00  0.00000000E+00
  0.00000000E+00  0.00000000E+00  0.00000000E+00
  0.00000000E+00  0.00000000E+00  0.00000000E+00
  0.00000000E+00  0.00000000E+00  0.00000000E+00
  0.00000000E+00  0.00000000E+00  0.00000000E+00
  0.00000000E+00  0.00000000E+00  0.00000000E+00
  0.00000000E+00  0.00000000E+00  0.00000000E+00
