 N Ga
   1.0
     4.4954174099999999    0.0000000000000000    0.0000000000000000
     0.0000000000000000    4.4954174099999999    0.0000000000000000
     0.0000000000000000    0.0000000000000000    4.4954174099999999
 N Ga
   4   4
Direct
   0.2500000000000000  0.2500000000000000  0.2500000000000000
   0.2500000000000000  0.7500000000000000  0.7500000000000000
   0.7500000000000000  0.2500000000000000  0.7500000000000000
   0.7500000000000000  0.7500000000000000  0.2500000000000000
   0.0000000000000000  0.0000000000000000  0.0000000000000000
   0.0000000000000000  0.5000000000000000  0.5000000000000000
   0.5000000000000000  0.0000000000000000  0.5000000000000000
   0.5000000000000000  0.5000000000000000  0.0000000000000000